702 5
10 10 10 10 10 

0 0 0 0 0 0 5 2 14 66 118 170 
0 0 0 0 0 0 2 3 4 
3 2 0 0 0 0 2 11 5 
8 5 0 0 0 0 1 5 
10 3 0 0 0 0 2 9 6 
5 4 0 0 0 0 1 7 
2 3 0 0 0 0 1 8 
4 10 0 0 0 0 1 10 
7 3 0 0 0 0 2 10 246 
4 5 0 0 0 0 1 12 
5 5 0 0 0 0 1 12 
9 10 0 0 0 0 1 13 
0 0 0 0 0 0 5 222 264 276 318 360 
0 0 0 0 0 0 1 15 
3 3 1 2 1 1 2 26 16 
7 4 5 7 5 6 1 17 
4 8 2 6 7 7 1 18 
9 2 5 10 5 5 1 19 
10 4 5 7 7 4 2 25 20 
8 5 3 2 7 3 1 21 
9 3 6 6 2 5 1 22 
1 2 8 5 1 5 1 23 
3 2 4 3 7 7 1 24 
8 4 5 4 5 5 3 43 30 27 
4 5 5 7 8 7 3 43 30 27 
5 5 4 3 6 3 2 43 27 
10 3 4 7 5 4 1 28 
10 2 2 5 1 3 1 29 
7 5 2 4 6 3 1 31 
7 4 4 1 3 5 1 31 
6 3 6 5 6 7 1 32 
10 9 3 6 6 5 3 42 40 33 
1 3 9 7 10 8 2 46 34 
5 5 2 4 3 4 1 35 
7 3 6 5 7 8 1 36 
1 5 7 6 4 6 2 44 37 
10 4 5 5 5 3 1 38 
9 6 7 1 5 3 1 39 
9 5 5 5 6 6 1 41 
4 9 7 7 5 4 1 41 
8 4 4 5 6 5 2 48 45 
9 2 8 3 5 4 2 60 46 
4 7 2 7 2 6 1 45 
3 4 3 5 7 4 3 60 51 49 
9 7 6 2 4 6 2 60 47 
7 8 6 6 5 4 1 47 
10 5 3 4 4 4 1 49 
8 6 5 5 4 4 2 60 52 
10 5 5 6 3 5 1 50 
8 8 7 4 4 7 1 52 
2 4 5 5 6 5 2 52 539 
8 7 8 4 4 6 1 53 
10 7 3 4 7 5 2 64 54 
5 3 5 6 7 5 1 55 
10 7 7 2 5 7 1 56 
5 10 8 5 7 3 1 57 
3 6 3 6 5 4 1 58 
7 9 4 5 8 7 1 59 
8 2 6 8 5 5 2 63 61 
7 3 6 7 7 5 1 61 
10 7 4 7 3 4 1 62 
2 7 5 6 3 8 1 65 
9 4 8 5 4 6 1 65 
4 5 7 3 2 4 1 65 
0 0 0 0 0 0 1 702 
0 0 0 0 0 0 1 67 
5 1 1 3 1 1 2 72 68 
2 4 4 3 3 5 1 69 
5 4 8 4 7 7 1 70 
3 5 7 5 5 4 1 71 
4 1 4 1 5 3 2 76 73 
3 8 5 5 4 3 1 73 
10 7 5 5 10 9 1 74 
10 6 6 4 3 7 1 75 
3 4 5 8 6 5 1 77 
1 7 3 8 3 2 1 77 
2 6 7 5 5 6 1 78 
3 5 2 3 4 6 1 79 
2 6 6 5 3 9 2 81 80 
10 7 7 5 5 4 2 86 82 
9 5 4 6 7 5 1 82 
7 5 6 5 7 3 1 83 
1 4 4 2 2 7 1 84 
9 8 6 8 7 5 3 91 90 85 
4 9 2 8 10 6 2 93 87 
2 3 6 4 3 5 2 93 88 
3 6 4 6 8 5 1 88 
10 5 10 6 6 3 1 89 
1 3 3 2 5 2 2 95 92 
3 4 5 3 4 4 1 93 
3 7 9 4 4 7 1 92 
4 4 9 4 4 10 1 94 
6 8 6 4 2 2 1 94 
2 3 6 5 10 5 1 96 
6 2 4 3 5 7 2 100 98 
10 8 3 8 6 4 1 97 
9 2 3 6 6 8 1 98 
8 3 2 3 6 6 2 101 99 
1 4 6 7 2 5 2 106 102 
5 6 2 4 3 5 2 106 103 
6 8 6 4 7 5 2 106 104 
9 3 3 6 6 7 1 103 
6 6 7 7 3 4 1 104 
3 5 6 4 2 4 1 105 
2 10 1 4 6 5 2 113 107 
8 3 4 10 4 2 2 113 108 
2 3 3 6 10 6 1 108 
8 3 8 8 6 3 1 109 
4 7 3 2 4 1 1 110 
8 3 5 2 4 4 1 111 
6 7 3 8 4 6 1 112 
7 3 4 6 5 4 2 116 114 
5 4 10 5 3 10 3 116 114 471 
8 5 5 7 6 3 1 115 
8 7 6 4 6 6 1 117 
4 3 6 5 3 5 1 117 
0 0 0 0 0 0 1 702 
0 0 0 0 0 0 1 119 
8 1 1 1 4 1 2 130 120 
9 8 8 6 4 5 1 121 
3 2 6 5 10 6 1 122 
3 8 3 3 3 4 1 123 
6 5 5 2 3 5 2 128 124 
5 10 5 7 6 6 1 125 
5 4 2 4 7 9 1 126 
6 4 7 3 6 5 1 127 
2 3 3 7 5 7 1 129 
1 5 6 7 4 5 1 129 
8 4 6 2 5 7 2 133 131 
1 5 6 4 4 3 1 131 
4 3 7 4 5 5 2 132 476 
9 9 4 5 7 9 2 143 134 
7 2 6 2 4 6 1 134 
3 6 5 4 10 1 1 135 
9 8 8 7 6 4 1 136 
1 5 3 7 6 3 3 147 145 137 
4 5 6 6 4 4 2 149 138 
8 2 5 3 8 2 1 139 
4 5 8 9 4 5 1 140 
6 7 4 2 6 9 2 148 141 
3 3 4 4 5 3 1 142 
10 5 8 5 6 6 1 144 
3 6 3 7 4 2 1 144 
9 4 6 6 8 6 1 146 
2 8 7 10 3 6 1 146 
2 6 2 5 3 2 2 152 150 
9 4 4 7 4 4 1 149 
5 5 3 7 2 9 3 163 154 151 
5 5 6 3 2 5 1 150 
7 7 6 5 3 6 2 163 151 
6 6 1 8 6 9 1 153 
3 8 6 8 6 3 2 163 156 
9 7 7 2 1 6 1 155 
8 8 4 1 4 5 1 155 
5 4 6 3 6 5 1 156 
1 2 4 5 7 2 1 157 
2 3 3 5 2 2 2 168 158 
2 2 5 7 4 7 1 159 
4 6 2 5 5 2 1 160 
3 2 9 8 4 4 1 161 
7 4 6 6 3 5 1 162 
6 5 2 5 5 6 1 164 
4 5 7 3 8 6 1 164 
10 6 2 3 6 7 2 167 165 
9 4 6 7 3 3 1 166 
2 3 6 4 5 7 1 169 
8 7 7 6 8 6 1 169 
10 4 4 5 6 5 1 169 
0 0 0 0 0 0 1 702 
0 0 0 0 0 0 1 171 
5 2 1 1 1 1 2 175 172 
6 6 4 1 5 6 1 173 
4 6 5 7 4 4 1 174 
5 4 5 7 5 5 1 176 
6 5 3 4 7 3 1 176 
7 3 6 8 7 8 2 180 177 
6 5 4 2 5 5 1 178 
5 4 6 4 5 7 2 179 646 
10 3 6 4 2 3 1 181 
10 2 6 4 8 2 1 181 
4 5 8 7 3 5 1 182 
6 7 5 4 4 4 1 183 
2 5 4 4 3 7 2 185 184 
9 3 3 6 5 8 2 189 186 
7 8 6 3 4 3 1 186 
6 6 5 5 7 5 1 187 
10 8 5 8 4 6 1 188 
10 6 10 5 5 5 3 194 193 190 
7 4 3 7 3 6 1 190 
10 5 6 6 7 5 2 197 191 
6 3 4 4 5 6 1 192 
8 5 5 6 3 5 1 195 
6 6 2 5 5 3 1 195 
3 2 5 3 9 3 3 203 197 196 
4 5 3 2 5 4 2 198 196 
3 2 6 5 6 6 1 199 
7 5 3 5 4 4 1 199 
1 2 1 3 4 6 2 203 201 
2 7 3 3 7 4 1 200 
10 5 5 5 3 8 1 201 
7 5 3 9 5 7 1 202 
9 5 5 9 8 5 2 205 204 
3 6 4 6 8 8 2 205 204 
7 6 5 3 2 6 2 210 206 
8 5 4 3 4 7 2 210 208 
5 6 7 5 6 2 1 207 
1 8 8 5 3 5 1 208 
10 8 7 4 4 6 1 209 
7 3 5 4 2 3 2 215 211 
3 8 6 8 9 8 2 215 211 
10 5 8 3 5 8 1 212 
3 7 6 7 6 4 1 213 
10 4 7 9 5 2 1 214 
3 6 4 8 5 3 1 216 
1 5 6 2 6 6 1 216 
8 2 6 5 5 1 1 217 
6 5 8 6 5 5 2 220 218 
4 4 3 4 5 6 1 219 
9 3 6 6 7 4 1 221 
8 10 4 6 5 7 1 221 
0 0 0 0 0 0 1 702 
0 0 0 0 0 0 3 223 236 244 
2 0 1 2 3 1 1 224 
7 0 7 4 3 2 1 225 
7 0 4 6 3 3 1 226 
9 0 5 2 7 5 1 227 
6 0 4 6 4 5 2 238 228 
10 0 5 10 4 9 1 229 
8 0 9 7 8 5 1 230 
1 0 3 4 3 6 1 231 
6 0 6 3 7 5 1 232 
8 0 7 3 3 8 2 262 233 
1 0 4 7 7 3 1 234 
6 0 7 3 5 3 1 235 
7 0 5 3 4 5 2 261 237 
4 0 9 3 10 2 2 262 237 
10 0 4 5 4 2 3 260 254 239 
5 0 5 3 6 5 3 260 254 241 
10 0 7 5 9 6 1 240 
4 0 4 7 7 8 1 241 
7 0 3 6 5 2 1 242 
10 0 7 8 6 8 1 243 
7 0 3 5 3 4 2 259 245 
2 0 1 8 10 4 4 259 258 257 246 
2 0 3 3 4 3 4 258 257 246 552 
7 0 5 3 2 6 1 247 
9 0 5 7 6 5 1 248 
4 0 3 3 3 7 1 249 
7 0 6 6 1 6 1 250 
10 0 4 6 5 5 1 251 
7 0 3 6 3 5 1 252 
6 0 6 5 5 10 1 253 
2 0 4 5 7 6 1 255 
4 0 5 4 6 8 1 255 
7 0 9 3 3 3 1 256 
4 0 3 6 6 2 1 263 
5 0 6 5 2 4 1 263 
7 0 6 4 6 5 1 263 
3 0 6 8 4 3 1 263 
2 0 4 7 4 8 1 263 
8 0 7 4 7 5 1 263 
8 0 5 5 5 8 1 263 
0 0 0 0 0 0 1 702 
0 0 0 0 0 0 3 265 269 272 
9 0 0 0 1 0 2 274 266 
7 0 0 0 3 0 1 267 
5 0 0 0 3 0 1 268 
10 0 0 0 4 0 1 270 
4 0 0 0 5 0 1 270 
2 0 0 0 10 0 1 271 
6 0 0 0 4 0 2 273 693 
7 0 0 0 5 0 1 274 
3 0 0 0 10 0 1 275 
3 0 0 0 5 0 1 275 
0 0 0 0 0 0 5 402 434 466 478 510 
0 0 0 0 0 0 2 277 278 
9 1 1 3 1 0 2 281 280 
6 3 7 7 7 0 1 279 
1 4 6 6 7 0 1 280 
4 4 9 8 7 0 1 282 
2 5 5 6 5 0 1 282 
1 3 4 8 6 0 1 283 
2 5 3 4 2 0 1 284 
4 9 5 6 8 0 1 285 
3 2 3 5 8 0 2 288 286 
10 6 6 1 1 0 1 287 
5 2 4 10 6 0 1 289 
3 5 2 5 5 0 1 289 
8 5 4 5 6 0 1 290 
9 7 8 3 4 0 1 291 
1 5 10 3 3 0 1 292 
4 3 5 1 3 0 1 293 
7 9 8 3 4 0 3 296 295 294 
5 8 7 6 5 0 2 300 298 
6 5 6 4 3 0 1 297 
7 7 2 4 5 0 2 300 299 
3 8 2 2 4 0 1 298 
2 3 4 4 7 0 1 299 
5 7 6 8 6 0 1 301 
6 5 5 5 3 0 1 301 
10 4 7 5 3 0 2 304 302 
2 5 5 6 6 0 1 303 
1 6 1 4 5 0 2 306 305 
9 3 8 7 4 0 2 306 305 
4 8 5 3 7 0 2 309 307 
6 4 4 6 4 0 2 309 308 
10 6 2 5 2 0 1 308 
4 4 4 5 8 0 2 312 310 
3 5 4 6 7 0 2 312 311 
9 4 4 4 5 0 1 311 
5 4 3 4 5 0 1 313 
9 6 2 3 4 0 2 313 353 
3 3 9 6 6 0 1 314 
10 9 8 6 5 0 1 315 
6 4 7 7 5 0 1 316 
3 4 5 6 8 0 1 317 
0 0 0 0 0 0 1 702 
0 0 0 0 0 0 3 319 339 358 
2 1 0 1 1 2 1 320 
9 8 0 6 4 2 1 321 
4 6 0 8 6 3 1 322 
4 4 0 4 4 7 1 323 
4 4 0 6 7 5 2 346 324 
4 7 0 7 6 8 1 325 
6 3 0 7 5 3 1 326 
4 6 0 3 7 4 1 327 
6 8 0 4 6 4 2 357 328 
5 5 0 7 2 10 1 329 
1 5 0 5 6 6 1 330 
3 9 0 4 5 2 1 331 
4 4 0 9 8 5 3 356 332 629 
7 3 0 4 8 6 3 355 354 333 
10 3 0 7 4 8 1 334 
1 5 0 4 3 6 1 335 
10 5 0 7 2 5 1 336 
2 8 0 4 7 2 1 337 
5 7 0 5 2 5 2 353 338 
4 5 0 3 3 3 3 352 351 340 
1 3 0 2 4 3 1 340 
2 3 0 4 5 5 1 341 
5 5 0 8 5 7 1 342 
4 5 0 2 7 5 1 343 
3 4 0 5 4 6 1 344 
7 3 0 5 7 7 1 345 
7 5 0 4 5 4 1 347 
8 8 0 7 5 6 1 347 
8 4 0 7 2 5 1 348 
3 5 0 1 4 7 1 349 
1 6 0 7 4 5 1 350 
7 7 0 5 5 5 1 359 
1 4 0 5 8 3 1 359 
6 7 0 3 2 4 1 359 
6 3 0 3 7 7 1 359 
6 7 0 3 7 6 1 359 
9 5 0 6 6 5 1 359 
7 4 0 4 8 4 1 359 
2 3 0 6 5 5 1 359 
8 3 0 8 4 5 1 359 
0 0 0 0 0 0 1 702 
0 0 0 0 0 0 3 361 374 381 
6 1 0 1 2 1 1 362 
8 4 0 10 2 5 1 363 
5 6 0 8 6 5 1 364 
10 6 0 5 7 7 1 365 
8 2 0 8 3 4 2 376 366 
9 2 0 2 4 7 1 367 
7 5 0 5 4 6 1 368 
8 8 0 4 3 4 1 369 
6 8 0 3 5 10 1 370 
7 9 0 2 7 7 1 371 
1 3 0 4 3 7 2 400 372 
1 5 0 5 4 5 1 373 
5 4 0 7 6 3 2 399 375 
4 5 0 3 5 5 2 400 375 
9 2 0 8 2 7 2 391 377 
5 7 0 8 5 6 2 391 377 
6 3 0 5 10 6 2 398 378 
1 9 0 3 4 5 1 379 
6 5 0 9 7 7 1 380 
7 6 0 3 10 10 1 382 
9 3 0 5 6 5 1 382 
8 2 0 1 3 3 2 397 383 
10 3 0 4 6 3 3 396 395 384 
7 2 0 4 6 3 1 385 
5 5 0 7 5 3 1 386 
7 5 0 5 6 4 2 387 605 
7 5 0 7 2 6 1 388 
5 6 0 6 6 5 1 389 
3 10 0 4 6 6 1 390 
9 3 0 4 3 3 1 392 
8 10 0 2 6 5 1 392 
5 2 0 6 5 5 1 393 
6 4 0 3 4 2 1 394 
9 6 0 3 6 7 1 401 
6 5 0 5 6 4 1 401 
2 4 0 6 9 1 1 401 
2 7 0 7 3 3 1 401 
8 7 0 6 5 5 1 401 
8 6 0 6 5 5 1 401 
9 5 0 6 3 5 1 401 
0 0 0 0 0 0 1 702 
0 0 0 0 0 0 1 403 
7 0 0 1 1 1 1 404 
4 0 0 4 7 6 2 406 405 
4 0 0 6 2 10 2 408 407 
10 0 0 5 9 3 1 407 
7 0 0 6 7 8 1 409 
4 0 0 5 3 3 1 409 
1 0 0 6 6 5 2 412 410 
7 0 0 3 7 3 1 411 
7 0 0 6 4 7 2 415 413 
9 0 0 4 5 7 3 420 415 414 
1 0 0 5 5 4 2 420 414 
2 0 0 6 3 7 1 416 
9 0 0 7 3 4 1 416 
4 0 0 5 10 6 2 419 417 
1 0 0 5 4 5 1 418 
2 0 0 5 7 7 2 423 421 
9 0 0 6 4 3 2 423 422 
3 0 0 3 1 3 2 423 422 
8 0 0 7 8 3 1 422 
4 0 0 6 4 7 2 426 424 
4 0 0 8 10 8 2 426 425 
6 0 0 5 4 5 1 425 
4 0 0 3 4 7 1 427 
10 0 0 4 3 5 1 427 
9 0 0 6 5 3 1 428 
2 0 0 6 5 6 1 429 
8 0 0 7 2 3 1 430 
7 0 0 2 6 2 2 431 635 
1 0 0 5 5 6 1 432 
6 0 0 3 6 3 1 433 
0 0 0 0 0 0 1 702 
0 0 0 0 0 0 1 435 
9 0 1 1 1 0 2 438 436 
9 0 6 5 5 0 1 437 
5 0 6 5 5 0 2 440 439 
9 0 6 6 7 0 1 439 
4 0 6 8 4 0 1 441 
1 0 5 9 4 0 1 441 
8 0 6 10 5 0 2 445 442 
4 0 3 4 3 0 1 443 
3 0 3 4 4 0 2 447 444 
2 0 5 4 4 0 2 451 446 
3 0 4 3 5 0 2 447 446 
3 0 5 4 6 0 1 448 
10 0 3 3 6 0 1 448 
10 0 3 5 3 0 2 453 449 
3 0 7 5 5 0 1 450 
10 0 4 4 6 0 2 458 452 
4 0 6 4 8 0 3 460 458 455 
1 0 7 4 9 0 2 460 454 
3 0 5 4 4 0 2 460 455 
10 0 4 5 5 0 1 455 
8 0 9 5 4 0 1 456 
7 0 5 4 9 0 1 457 
5 0 5 5 4 0 2 459 543 
4 0 6 4 7 0 1 459 
6 0 5 5 9 0 1 461 
5 0 2 7 2 0 1 461 
9 0 6 2 3 0 1 462 
10 0 7 8 4 0 1 463 
10 0 5 6 3 0 1 464 
3 0 5 7 6 0 1 465 
0 0 0 0 0 0 1 702 
0 0 0 0 0 0 2 467 469 
8 0 0 0 1 0 1 468 
6 0 0 0 6 0 2 470 523 
5 0 0 0 4 0 1 470 
4 0 0 0 7 0 2 472 471 
2 0 0 0 3 0 2 475 473 
9 0 0 0 3 0 2 475 474 
8 0 0 0 10 0 1 474 
5 0 0 0 4 0 1 476 
6 0 0 0 4 0 1 476 
4 0 0 0 8 0 1 477 
0 0 0 0 0 0 5 542 564 586 598 620 
0 0 0 0 0 0 2 479 508 
2 2 0 0 1 1 1 480 
2 6 0 0 6 4 1 481 
5 8 0 0 3 5 1 482 
5 1 0 0 3 5 1 483 
1 4 0 0 5 3 2 507 484 
4 5 0 0 4 8 1 485 
7 7 0 0 6 7 1 486 
3 6 0 0 4 4 5 506 505 504 492 487 
5 10 0 0 6 7 1 488 
1 3 0 0 4 4 2 493 489 
1 10 0 0 5 4 1 490 
9 8 0 0 6 7 1 491 
9 6 0 0 5 7 2 503 494 
2 6 0 0 5 6 2 495 493 
1 6 0 0 6 5 2 503 496 
10 6 0 0 2 9 1 495 
7 3 0 0 7 8 1 496 
7 4 0 0 8 3 1 497 
2 6 0 0 3 4 1 498 
8 2 0 0 3 3 1 499 
10 4 0 0 9 5 1 500 
1 4 0 0 7 4 1 501 
2 5 0 0 7 2 1 502 
4 2 0 0 8 4 2 509 590 
1 5 0 0 4 4 1 509 
1 4 0 0 4 3 1 509 
3 5 0 0 4 6 1 509 
3 6 0 0 6 8 1 509 
7 2 0 0 4 2 1 509 
10 4 0 0 5 8 1 509 
0 0 0 0 0 0 1 702 
0 0 0 0 0 0 3 511 540 593 
5 0 1 1 3 0 1 512 
7 0 3 4 2 0 1 513 
7 0 4 3 9 0 1 514 
7 0 5 5 4 0 1 515 
10 0 2 6 4 0 2 539 516 
1 0 4 8 9 0 1 517 
5 0 4 5 3 0 1 518 
1 0 5 2 6 0 5 538 534 524 523 519 
4 0 6 8 3 0 1 520 
6 0 7 4 6 0 2 526 521 
7 0 3 5 2 0 1 522 
1 0 9 7 5 0 1 525 
5 0 2 6 9 0 1 526 
1 0 6 7 5 0 1 525 
2 0 4 5 2 0 1 527 
4 0 7 5 4 0 1 527 
6 0 4 4 6 0 1 528 
3 0 5 6 3 0 2 537 529 
1 0 9 6 6 0 1 530 
7 0 5 4 6 0 1 531 
5 0 4 7 4 0 1 532 
3 0 8 3 6 0 1 533 
7 0 4 5 5 0 1 535 
1 0 4 7 5 0 1 535 
2 0 10 7 4 0 1 536 
10 0 4 2 5 0 1 541 
7 0 5 6 4 0 1 541 
6 0 5 2 10 0 1 541 
3 0 4 5 4 0 1 541 
10 0 7 5 6 0 1 541 
0 0 0 0 0 0 1 702 
0 0 0 0 0 0 4 543 560 561 562 
5 1 1 0 0 0 2 559 544 
10 4 4 0 0 0 1 545 
9 6 4 0 0 0 1 546 
10 4 5 0 0 0 1 547 
3 10 2 0 0 0 1 548 
10 6 4 0 0 0 2 558 549 
6 5 9 0 0 0 1 550 
2 3 8 0 0 0 1 551 
8 2 4 0 0 0 1 552 
6 5 4 0 0 0 1 553 
10 5 6 0 0 0 1 554 
10 8 10 0 0 0 1 555 
7 4 4 0 0 0 1 556 
9 5 9 0 0 0 1 557 
6 6 5 0 0 0 1 563 
3 5 2 0 0 0 1 563 
7 7 7 0 0 0 1 563 
1 3 4 0 0 0 2 563 635 
8 6 3 0 0 0 1 563 
10 5 5 0 0 0 1 563 
0 0 0 0 0 0 1 702 
0 0 0 0 0 0 2 565 626 
2 0 1 0 0 1 1 566 
2 0 3 0 0 2 2 569 567 
8 0 8 0 0 8 1 568 
1 0 3 0 0 8 1 570 
8 0 6 0 0 6 1 570 
4 0 6 0 0 6 1 571 
7 0 6 0 0 8 2 573 572 
5 0 9 0 0 4 2 577 574 
8 0 4 0 0 7 2 577 575 
5 0 5 0 0 2 1 575 
2 0 8 0 0 2 1 576 
6 0 3 0 0 3 1 578 
6 0 7 0 0 6 1 578 
5 0 4 0 0 3 3 581 580 579 
2 0 5 0 0 5 1 582 
9 0 2 0 0 4 1 582 
5 0 7 0 0 4 1 582 
8 0 5 0 0 9 1 583 
4 0 3 0 0 7 1 584 
2 0 5 0 0 5 1 585 
0 0 0 0 0 0 1 702 
0 0 0 0 0 0 1 587 
4 0 1 0 0 0 1 588 
8 0 6 0 0 0 2 591 589 
8 0 8 0 0 0 2 593 590 
9 0 3 0 0 0 1 592 
1 0 7 0 0 0 1 592 
6 0 4 0 0 0 3 596 594 622 
8 0 4 0 0 0 2 596 594 
2 0 4 0 0 0 1 595 
6 0 8 0 0 0 1 597 
3 0 5 0 0 0 1 597 
0 0 0 0 0 0 5 642 654 666 678 690 
0 0 0 0 0 0 2 599 670 
10 0 1 0 1 0 2 604 600 
3 0 6 0 7 0 1 601 
5 0 3 0 6 0 2 606 602 
9 0 5 0 5 0 1 603 
10 0 5 0 1 0 2 611 605 
3 0 5 0 5 0 2 611 605 
8 0 6 0 8 0 2 609 607 
6 0 5 0 4 0 2 611 608 
1 0 4 0 5 0 1 608 
3 0 9 0 6 0 2 612 610 
2 0 3 0 3 0 2 613 612 
4 0 1 0 3 0 1 613 
1 0 6 0 4 0 1 612 
7 0 4 0 4 0 1 614 
10 0 6 0 6 0 1 614 
6 0 4 0 7 0 1 615 
7 0 6 0 9 0 1 616 
9 0 7 0 9 0 1 617 
2 0 9 0 6 0 1 618 
8 0 5 0 1 0 1 619 
0 0 0 0 0 0 1 702 
0 0 0 0 0 0 2 621 623 
3 1 1 0 0 0 2 628 622 
10 6 8 0 0 0 1 625 
6 4 10 0 0 0 1 624 
5 6 4 0 0 0 2 628 627 
5 8 4 0 0 0 1 626 
2 5 5 0 0 0 1 627 
10 6 9 0 0 0 1 629 
9 7 3 0 0 0 1 629 
5 7 4 0 0 0 2 633 630 
5 3 7 0 0 0 1 631 
9 3 3 0 0 0 1 632 
1 7 3 0 0 0 1 634 
9 6 6 0 0 0 1 634 
7 2 3 0 0 0 2 640 635 
8 4 4 0 0 0 1 636 
9 3 7 0 0 0 1 637 
8 2 5 0 0 0 2 638 699 
3 5 6 0 0 0 1 639 
1 9 4 0 0 0 1 641 
7 6 4 0 0 0 1 641 
0 0 0 0 0 0 1 702 
0 0 0 0 0 0 2 643 649 
1 0 1 0 0 0 2 648 644 
8 0 4 0 0 0 2 645 680 
5 0 5 0 0 0 2 652 646 
2 0 3 0 0 0 1 647 
10 0 6 0 0 0 1 650 
4 0 5 0 0 0 1 650 
4 0 9 0 0 0 1 650 
1 0 8 0 0 0 1 651 
3 0 6 0 0 0 1 653 
10 0 3 0 0 0 1 653 
0 0 0 0 0 0 1 702 
0 0 0 0 0 0 3 655 658 662 
8 0 0 1 0 0 1 656 
5 0 0 5 0 0 2 660 657 
7 0 0 6 0 0 1 659 
10 0 0 5 0 0 1 659 
2 0 0 3 0 0 1 661 
5 0 0 7 0 0 1 661 
10 0 0 8 0 0 1 663 
1 0 0 2 0 0 1 663 
3 0 0 7 0 0 2 664 699 
2 0 0 6 0 0 1 665 
0 0 0 0 0 0 1 702 
0 0 0 0 0 0 2 667 671 
8 0 0 0 0 1 2 670 668 
10 0 0 0 0 5 1 669 
10 0 0 0 0 4 2 672 692 
4 0 0 0 0 2 1 672 
8 0 0 0 0 6 1 672 
7 0 0 0 0 7 2 676 673 
3 0 0 0 0 6 1 674 
4 0 0 0 0 7 1 675 
5 0 0 0 0 6 1 677 
9 0 0 0 0 6 1 677 
0 0 0 0 0 0 1 702 
0 0 0 0 0 0 2 679 685 
6 1 0 0 0 0 3 688 683 680 
1 5 0 0 0 0 1 681 
4 7 0 0 0 0 1 682 
6 3 0 0 0 0 1 684 
3 2 0 0 0 0 1 684 
8 4 0 0 0 0 1 686 
7 6 0 0 0 0 2 686 698 
10 4 0 0 0 0 1 687 
1 8 0 0 0 0 1 689 
8 10 0 0 0 0 1 689 
0 0 0 0 0 0 1 702 
0 0 0 0 0 0 1 691 
5 0 1 0 0 0 2 696 692 
4 0 8 0 0 0 1 693 
8 0 5 0 0 0 3 700 698 694 
2 0 7 0 0 0 1 695 
9 0 5 0 0 0 1 697 
3 0 7 0 0 0 1 697 
6 0 4 0 0 0 1 699 
2 0 6 0 0 0 1 699 
4 0 2 0 0 0 1 701 
6 0 5 0 0 0 1 701 
0 0 0 0 0 0 1 702 
0 0 0 0 0 0 0 
